c "323747.clq"
p edge 80 304
e 1 5
e 1 6
e 1 8
e 1 10
e 1 33
e 1 74
e 1 75
e 2 5
e 2 6
e 2 8
e 2 11
e 2 13
e 2 16
e 2 19
e 2 45
e 2 46
e 2 48
e 3 5
e 3 7
e 3 10
e 3 21
e 3 38
e 3 44
e 3 80
e 4 5
e 4 6
e 4 7
e 4 8
e 4 9
e 4 11
e 4 14
e 4 19
e 4 24
e 4 27
e 4 31
e 4 34
e 4 35
e 4 37
e 4 41
e 4 44
e 4 55
e 4 65
e 4 69
e 4 74
e 4 77
e 5 6
e 5 7
e 5 8
e 5 9
e 5 10
e 5 11
e 5 12
e 5 15
e 5 20
e 5 23
e 5 24
e 5 25
e 5 27
e 5 28
e 5 29
e 5 30
e 5 31
e 5 40
e 5 41
e 5 45
e 5 50
e 5 61
e 5 63
e 5 65
e 5 67
e 5 69
e 5 77
e 5 78
e 6 7
e 6 9
e 6 17
e 6 18
e 6 19
e 6 20
e 6 21
e 6 34
e 6 35
e 6 42
e 6 43
e 6 44
e 6 49
e 6 52
e 6 58
e 6 59
e 6 65
e 6 72
e 6 73
e 7 9
e 7 10
e 7 12
e 7 14
e 7 15
e 7 22
e 7 28
e 7 30
e 7 37
e 7 38
e 7 58
e 7 67
e 7 77
e 7 80
e 8 11
e 8 13
e 8 15
e 8 16
e 8 18
e 8 19
e 8 20
e 8 23
e 8 32
e 8 34
e 8 40
e 8 66
e 8 69
e 8 77
e 9 23
e 9 25
e 9 26
e 9 33
e 9 39
e 9 51
e 9 54
e 9 74
e 10 12
e 10 13
e 10 14
e 10 18
e 10 21
e 10 22
e 10 28
e 10 32
e 10 33
e 10 39
e 10 54
e 10 56
e 10 60
e 10 61
e 10 75
e 11 12
e 11 14
e 11 15
e 11 22
e 11 32
e 11 38
e 11 43
e 11 53
e 11 70
e 11 76
e 12 13
e 12 16
e 12 17
e 12 25
e 12 26
e 12 29
e 12 35
e 12 37
e 12 48
e 12 51
e 12 57
e 12 64
e 12 71
e 12 72
e 12 76
e 12 79
e 13 16
e 13 36
e 13 62
e 13 64
e 14 23
e 14 24
e 14 47
e 14 67
e 14 72
e 15 17
e 15 18
e 15 21
e 15 22
e 15 24
e 15 27
e 15 29
e 15 32
e 15 33
e 15 39
e 15 53
e 15 65
e 15 79
e 16 17
e 16 28
e 16 48
e 16 56
e 16 67
e 17 26
e 17 30
e 17 70
e 18 20
e 18 29
e 18 42
e 18 52
e 18 53
e 18 58
e 19 37
e 20 44
e 21 25
e 21 45
e 21 73
e 21 75
e 21 80
e 22 30
e 22 34
e 22 36
e 22 42
e 22 43
e 22 55
e 22 63
e 22 68
e 22 78
e 23 62
e 23 68
e 24 26
e 24 27
e 24 57
e 24 76
e 25 41
e 25 51
e 25 62
e 25 71
e 25 72
e 25 80
e 26 31
e 26 39
e 26 42
e 26 48
e 26 49
e 26 50
e 26 52
e 28 31
e 28 36
e 28 47
e 28 59
e 29 36
e 29 55
e 29 57
e 29 68
e 30 43
e 30 71
e 31 35
e 31 40
e 31 41
e 31 46
e 31 51
e 31 57
e 31 59
e 31 62
e 32 70
e 33 47
e 33 54
e 34 53
e 34 56
e 34 63
e 34 64
e 35 38
e 35 46
e 35 61
e 36 40
e 36 45
e 36 47
e 36 50
e 36 70
e 36 75
e 37 54
e 37 55
e 38 64
e 39 52
e 39 74
e 40 60
e 41 46
e 42 49
e 42 58
e 42 66
e 42 71
e 43 50
e 47 69
e 48 49
e 50 56
e 51 66
e 53 78
e 55 61
e 57 59
e 57 60
e 57 76
e 57 79
e 58 60
e 58 79
e 59 66
e 60 63
e 61 78
e 62 68
e 66 73
e 72 73
